p cnf 619 1704
-3 12 0 
3 14 0 
-91 92 0 
-91 101 0 
-92 93 0 
-92 100 0 
-93 94 0 
-93 99 0 
-94 95 0 
-94 98 0 
-95 96 0 
-95 97 0 
-96 31 0 
-97 34 0 
-98 37 0 
-99 40 0 
-100 43 0 
-3 4 8 0 
-101 46 0 
-102 49 0 
-103 52 0 
-104 55 0 
-105 58 0 
-106 61 0 
-107 64 0 
-108 67 0 
-109 70 0 
-110 73 0 
-4 -5 0 
-111 76 0 
-112 113 0 
-112 142 0 
-113 114 0 
-113 141 0 
-114 115 0 
-114 140 0 
-115 116 0 
-115 139 0 
-116 117 0 
-116 138 0 
-117 118 0 
-117 137 0 
-118 119 0 
-118 136 0 
-119 120 0 
-119 135 0 
-120 121 0 
-120 134 0 
-5 -6 7 0 
-5 -7 6 0 
-121 122 0 
-121 133 0 
-122 123 0 
-122 132 0 
-123 124 0 
-123 131 0 
-124 125 0 
-124 130 0 
-125 126 0 
-125 129 0 
-126 127 0 
-126 128 0 
-127 -30 0 
-128 -33 0 
-129 -36 0 
-130 -39 0 
-131 -42 0 
-132 -45 0 
-133 -48 0 
-134 -51 0 
-135 -54 0 
-136 -57 0 
-137 -60 0 
-138 -63 0 
-139 -66 0 
-140 -69 0 
-141 -72 0 
-142 -75 0 
-143 144 0 
-143 217 0 
-144 145 0 
-144 213 0 
-145 146 0 
-145 209 0 
-146 147 0 
-146 205 0 
-147 148 0 
-147 201 0 
-148 149 0 
-148 197 0 
-149 150 0 
-149 193 0 
-8 -9 0 
-150 151 0 
-150 189 0 
-151 152 0 
-151 185 0 
-152 153 0 
-152 181 0 
-153 154 0 
-153 177 0 
-154 155 0 
-154 173 0 
-155 156 0 
-155 169 0 
-156 157 0 
-156 165 0 
-157 158 0 
-157 161 0 
-158 -159 30 0 
-158 -30 159 0 
-159 160 0 
-9 -10 11 0 
-9 -11 10 0 
-160 -31 0 
-161 -162 33 0 
-161 -33 162 0 
-162 -163 -164 0 
-162 163 164 0 
-163 34 0 
-164 31 0 
-165 -166 36 0 
-165 -36 166 0 
-166 -167 -168 0 
-166 167 168 0 
-167 37 0 
-168 164 0 
-168 34 0 
-169 -170 39 0 
-169 -39 170 0 
-170 -171 -172 0 
-170 171 172 0 
-171 40 0 
-172 168 0 
-172 37 0 
-173 -174 42 0 
-173 -42 174 0 
-174 -175 -176 0 
-174 175 176 0 
-175 43 0 
-176 172 0 
-176 40 0 
-177 -178 45 0 
-177 -45 178 0 
-178 -179 -180 0 
-178 179 180 0 
-179 46 0 
-180 176 0 
-180 43 0 
-181 -182 48 0 
-181 -48 182 0 
-182 -183 -184 0 
-182 183 184 0 
-183 49 0 
-184 180 0 
-184 46 0 
-185 -186 51 0 
-185 -51 186 0 
-186 -187 -188 0 
-186 187 188 0 
-187 52 0 
-188 184 0 
-188 49 0 
-189 -190 54 0 
-189 -54 190 0 
-12 -13 14 0 
-12 13 77 0 
-190 -191 -192 0 
-190 191 192 0 
-191 55 0 
-192 188 0 
-192 52 0 
-193 -194 57 0 
-193 -57 194 0 
-194 -195 -196 0 
-194 195 196 0 
-195 58 0 
-196 192 0 
-196 55 0 
-197 -198 60 0 
-197 -60 198 0 
-198 -199 -200 0 
-198 199 200 0 
-199 61 0 
-13 10 0 
-200 196 0 
-200 58 0 
-201 -202 63 0 
-201 -63 202 0 
-202 -203 -204 0 
-202 203 204 0 
-203 64 0 
-204 200 0 
-204 61 0 
-205 -206 66 0 
-205 -66 206 0 
-206 -207 -208 0 
-206 207 208 0 
-207 67 0 
-208 204 0 
-208 64 0 
-209 -210 69 0 
-209 -69 210 0 
-210 -211 -212 0 
-210 211 212 0 
-211 70 0 
-212 208 0 
-212 67 0 
-213 -214 72 0 
-213 -72 214 0 
-214 -215 -216 0 
-214 215 216 0 
-215 73 0 
-216 212 0 
-216 70 0 
-217 -218 75 0 
-217 -75 218 0 
-218 -219 -220 0 
-218 219 220 0 
-219 76 0 
-14 15 0 
-14 74 0 
-220 216 0 
-220 73 0 
-221 222 0 
-222 221 0 
-3 223 0 
3 224 0 
-223 -13 224 0 
-223 13 287 0 
-224 225 0 
-224 284 0 
-225 226 0 
-225 281 0 
-226 227 0 
-226 278 0 
-15 16 0 
-15 71 0 
-227 228 0 
-227 275 0 
-228 229 0 
-228 272 0 
-229 230 0 
-229 269 0 
-230 231 0 
-230 266 0 
-231 232 0 
-231 263 0 
-232 233 0 
-232 260 0 
-233 234 0 
-233 257 0 
-234 235 0 
-234 254 0 
-235 236 0 
-235 251 0 
-236 237 0 
-236 248 0 
-16 17 0 
-16 68 0 
-237 238 0 
-237 245 0 
-238 239 0 
-238 242 0 
-239 -240 241 0 
-239 -241 240 0 
-242 -243 244 0 
-242 -244 243 0 
-245 -246 247 0 
-245 -247 246 0 
-17 18 0 
-17 65 0 
-248 -249 250 0 
-248 -250 249 0 
-251 -252 253 0 
-251 -253 252 0 
-254 -255 256 0 
-254 -256 255 0 
-18 19 0 
-18 62 0 
-257 -258 259 0 
-257 -259 258 0 
-260 -261 262 0 
-260 -262 261 0 
-263 -264 265 0 
-263 -265 264 0 
-266 -267 268 0 
-266 -268 267 0 
-19 20 0 
-19 59 0 
-269 -270 271 0 
-269 -271 270 0 
-272 -273 274 0 
-272 -274 273 0 
-275 -276 277 0 
-275 -277 276 0 
-20 21 0 
-20 56 0 
-278 -279 280 0 
-278 -280 279 0 
-281 -282 283 0 
-281 -283 282 0 
-284 -285 286 0 
-284 -286 285 0 
-21 22 0 
-21 53 0 
-287 -78 288 0 
-287 78 224 0 
-288 -289 320 0 
-288 289 351 0 
-289 290 0 
-289 319 0 
-290 291 0 
-290 318 0 
-291 292 0 
-291 317 0 
-292 293 0 
-292 316 0 
-293 294 0 
-293 315 0 
-294 295 0 
-294 314 0 
-295 296 0 
-295 313 0 
-296 297 0 
-296 312 0 
-22 23 0 
-22 50 0 
-297 298 0 
-297 311 0 
-298 299 0 
-298 310 0 
-299 300 0 
-299 309 0 
-300 301 0 
-300 308 0 
-301 302 0 
-301 307 0 
-302 303 0 
-302 306 0 
-303 304 0 
-303 305 0 
-304 241 0 
-305 244 0 
-306 247 0 
-23 24 0 
-23 47 0 
-307 250 0 
-308 253 0 
-309 256 0 
-310 259 0 
-311 262 0 
-312 265 0 
-313 268 0 
-314 271 0 
-315 274 0 
-316 277 0 
-24 25 0 
-24 44 0 
-317 280 0 
-318 283 0 
-319 286 0 
-320 321 0 
-320 350 0 
-321 322 0 
-321 349 0 
-322 323 0 
-322 348 0 
-323 324 0 
-323 347 0 
-324 325 0 
-324 346 0 
-325 326 0 
-325 345 0 
-326 327 0 
-326 344 0 
-25 26 0 
-25 41 0 
-327 328 0 
-327 343 0 
-328 329 0 
-328 342 0 
-329 330 0 
-329 341 0 
-330 331 0 
-330 340 0 
-331 332 0 
-331 339 0 
-332 333 0 
-332 338 0 
-333 334 0 
-333 337 0 
-334 335 0 
-334 336 0 
-335 -240 0 
-336 -243 0 
-26 27 0 
-26 38 0 
-337 -246 0 
-338 -249 0 
-339 -252 0 
-340 -255 0 
-341 -258 0 
-342 -261 0 
-343 -264 0 
-344 -267 0 
-345 -270 0 
-346 -273 0 
-27 28 0 
-27 35 0 
-347 -276 0 
-348 -279 0 
-349 -282 0 
-350 -285 0 
-351 352 0 
-351 425 0 
-352 353 0 
-352 421 0 
-353 354 0 
-353 417 0 
-354 355 0 
-354 413 0 
-355 356 0 
-355 409 0 
-356 357 0 
-356 405 0 
-28 29 0 
-28 32 0 
-357 358 0 
-357 401 0 
-358 359 0 
-358 397 0 
-359 360 0 
-359 393 0 
-360 361 0 
-360 389 0 
-361 362 0 
-361 385 0 
-362 363 0 
-362 381 0 
-363 364 0 
-363 377 0 
-364 365 0 
-364 373 0 
-365 366 0 
-365 369 0 
-366 -240 367 0 
-366 -367 240 0 
-29 -30 31 0 
-29 -31 30 0 
-367 368 0 
-368 -241 0 
-369 -243 370 0 
-369 -370 243 0 
-370 -371 -372 0 
-370 371 372 0 
-371 244 0 
-372 241 0 
-373 -246 374 0 
-373 -374 246 0 
-374 -375 -376 0 
-374 375 376 0 
-375 247 0 
-376 244 0 
-376 372 0 
-377 -249 378 0 
-377 -378 249 0 
-378 -379 -380 0 
-378 379 380 0 
-379 250 0 
-380 247 0 
-380 376 0 
-381 -252 382 0 
-381 -382 252 0 
-382 -383 -384 0 
-382 383 384 0 
-383 253 0 
-384 250 0 
-384 380 0 
-385 -255 386 0 
-385 -386 255 0 
-386 -387 -388 0 
-386 387 388 0 
-387 256 0 
-388 253 0 
-388 384 0 
-389 -258 390 0 
-389 -390 258 0 
-390 -391 -392 0 
-390 391 392 0 
-391 259 0 
-392 256 0 
-392 388 0 
-393 -261 394 0 
-393 -394 261 0 
-394 -395 -396 0 
-394 395 396 0 
-395 262 0 
-396 259 0 
-396 392 0 
-32 -33 34 0 
-32 -34 33 0 
-397 -264 398 0 
-397 -398 264 0 
-398 -399 -400 0 
-398 399 400 0 
-399 265 0 
-400 262 0 
-400 396 0 
-401 -267 402 0 
-401 -402 267 0 
-402 -403 -404 0 
-402 403 404 0 
-403 268 0 
-404 265 0 
-404 400 0 
-405 -270 406 0 
-405 -406 270 0 
-406 -407 -408 0 
-406 407 408 0 
-407 271 0 
-408 268 0 
-408 404 0 
-409 -273 410 0 
-409 -410 273 0 
-410 -411 -412 0 
-410 411 412 0 
-411 274 0 
-412 271 0 
-412 408 0 
-413 -276 414 0 
-413 -414 276 0 
-414 -415 -416 0 
-414 415 416 0 
-415 277 0 
-416 274 0 
-416 412 0 
-417 -279 418 0 
-417 -418 279 0 
-418 -419 -420 0 
-418 419 420 0 
-419 280 0 
-420 277 0 
-420 416 0 
-421 -282 422 0 
-421 -422 282 0 
-422 -423 -424 0 
-422 423 424 0 
-423 283 0 
-424 280 0 
-424 420 0 
-425 -285 426 0 
-425 -426 285 0 
-426 -427 -428 0 
-426 427 428 0 
-35 -36 37 0 
-35 -37 36 0 
-427 286 0 
-428 283 0 
-428 424 0 
-3 429 0 
3 437 0 
-429 -13 430 0 
-429 13 431 0 
-430 2 0 
-431 -78 432 0 
-431 78 437 0 
-432 -81 433 0 
-432 81 437 0 
-433 -434 2 0 
-433 -2 434 0 
-434 435 0 
-435 -436 0 
-437 -436 2 0 
-437 -2 436 0 
-3 438 0 
3 446 0 
-438 -13 439 0 
-438 13 440 0 
-439 -222 0 
-440 -78 441 0 
-440 78 446 0 
-441 -289 442 0 
-441 289 446 0 
-442 -222 443 0 
-442 -443 222 0 
-443 444 0 
-444 -445 0 
-446 -222 445 0 
-446 -445 222 0 
-3 447 0 
3 478 0 
-447 -448 449 0 
-447 448 460 0 
-448 -10 0 
-449 450 0 
-449 458 0 
-450 451 0 
-450 456 0 
-451 452 0 
-451 454 0 
-38 -39 40 0 
-38 -40 39 0 
-452 -453 0 
-454 -455 0 
-456 -457 0 
-458 -459 0 
-460 -78 461 0 
-460 78 478 0 
-461 -462 473 0 
-461 462 485 0 
-462 463 0 
-462 471 0 
-463 464 0 
-463 469 0 
-464 465 0 
-464 467 0 
-465 -466 0 
-467 -468 0 
-469 -470 0 
-471 -472 0 
-473 -13 474 0 
-473 13 478 0 
-474 458 0 
-474 475 0 
-475 456 0 
-475 476 0 
-476 454 0 
-476 477 0 
-477 453 0 
-478 479 0 
-478 484 0 
-479 480 0 
-479 483 0 
-480 481 0 
-480 482 0 
-481 -453 466 0 
-481 -466 453 0 
-41 -42 43 0 
-41 -43 42 0 
-482 -455 468 0 
-482 -468 455 0 
-483 -457 470 0 
-483 -470 457 0 
-484 -459 472 0 
-484 -472 459 0 
-485 -486 490 0 
-485 486 497 0 
-486 471 0 
-486 487 0 
-487 469 0 
-487 488 0 
-488 467 0 
-488 489 0 
-489 466 0 
-490 -491 493 0 
-490 491 474 0 
-491 492 0 
-493 458 0 
-493 494 0 
-494 456 0 
-494 495 0 
-495 452 0 
-495 496 0 
-496 455 0 
-497 -498 502 0 
-497 498 508 0 
-498 471 0 
-498 499 0 
-499 469 0 
-499 500 0 
-500 465 0 
-500 501 0 
-501 468 0 
-502 -503 505 0 
-502 503 478 0 
-503 -504 0 
-505 458 0 
-505 506 0 
-506 456 0 
-506 507 0 
-507 477 0 
-507 496 0 
-508 -509 512 0 
-508 509 517 0 
-509 471 0 
-509 510 0 
-510 469 0 
-510 511 0 
-511 489 0 
-511 501 0 
-44 -45 46 0 
-44 -46 45 0 
-512 -513 514 0 
-512 513 505 0 
-513 504 0 
-514 458 0 
-514 515 0 
-515 451 0 
-515 516 0 
-516 457 0 
-517 -518 521 0 
-517 518 525 0 
-518 471 0 
-518 519 0 
-519 464 0 
-519 520 0 
-520 470 0 
-521 -522 523 0 
-521 522 478 0 
-522 -436 0 
-523 458 0 
-523 524 0 
-524 476 0 
-524 516 0 
-525 -526 528 0 
-525 526 532 0 
-526 471 0 
-526 527 0 
-527 488 0 
-527 520 0 
-528 -529 530 0 
-528 529 478 0 
-529 436 0 
-530 458 0 
-530 531 0 
-531 495 0 
-531 516 0 
-532 -533 535 0 
-532 533 540 0 
-533 471 0 
-533 534 0 
-534 500 0 
-534 520 0 
-535 -536 538 0 
-535 536 478 0 
-536 537 0 
-538 458 0 
-538 539 0 
-539 507 0 
-539 516 0 
-540 -541 543 0 
-540 541 547 0 
-541 471 0 
-541 542 0 
-47 -48 49 0 
-47 -49 48 0 
-542 511 0 
-542 520 0 
-543 -544 545 0 
-543 544 478 0 
-544 -445 0 
-545 450 0 
-545 546 0 
-546 459 0 
-547 -548 550 0 
-547 548 553 0 
-548 463 0 
-548 549 0 
-549 472 0 
-550 -551 552 0 
-550 551 478 0 
-551 445 0 
-552 475 0 
-552 546 0 
-553 -554 555 0 
-553 554 478 0 
-554 487 0 
-554 549 0 
-555 -556 493 0 
-555 556 478 0 
-556 557 0 
-3 558 0 
3 563 0 
-558 -448 559 0 
-558 448 561 0 
-559 560 0 
-561 -78 562 0 
-561 78 563 0 
-562 -462 563 0 
-562 462 565 0 
-563 -560 564 0 
-563 -564 560 0 
-565 -486 566 0 
-565 486 568 0 
-566 -491 563 0 
-566 491 567 0 
-567 -560 0 
-568 -498 563 0 
-568 498 569 0 
-569 -509 563 0 
-569 509 570 0 
-50 -51 52 0 
-50 -52 51 0 
-570 -518 563 0 
-570 518 571 0 
-571 -526 572 0 
-571 526 573 0 
-572 -529 559 0 
-572 529 563 0 
-573 -533 563 0 
-573 533 574 0 
-574 -541 563 0 
-574 541 575 0 
-575 -548 576 0 
-575 548 577 0 
-576 -551 567 0 
-576 551 563 0 
-577 -554 578 0 
-577 554 563 0 
-578 -556 567 0 
-578 556 563 0 
-3 579 0 
3 584 0 
-579 -448 580 0 
-579 448 582 0 
-580 581 0 
-582 -78 583 0 
-582 78 584 0 
-583 -462 584 0 
-583 462 586 0 
-584 -581 585 0 
-584 -585 581 0 
-586 -486 587 0 
-586 486 589 0 
-587 -491 584 0 
-587 491 588 0 
-588 -581 0 
-589 -498 584 0 
-589 498 590 0 
-590 -509 584 0 
-590 509 591 0 
-591 -518 584 0 
-591 518 592 0 
-592 -526 593 0 
-592 526 594 0 
-593 -529 588 0 
-593 529 584 0 
-594 -533 584 0 
-594 533 595 0 
-595 -541 584 0 
-595 541 596 0 
-596 -548 597 0 
-596 548 598 0 
-597 -551 580 0 
-597 551 584 0 
-598 -554 599 0 
-598 554 584 0 
-53 -54 55 0 
-53 -55 54 0 
-599 -556 588 0 
-599 556 584 0 
-4 600 0 
4 616 0 
-600 -78 601 0 
-600 78 616 0 
-601 -602 605 0 
-601 602 607 0 
-602 603 0 
-602 604 0 
-603 564 0 
-604 -585 0 
-605 -436 606 0 
-605 -606 436 0 
-607 -608 611 0 
-607 608 612 0 
-608 609 0 
-608 610 0 
-609 -564 0 
-610 585 0 
-611 -445 606 0 
-611 -606 445 0 
-612 -613 614 0 
-612 613 615 0 
-613 603 0 
-613 610 0 
-614 -606 0 
-615 -504 606 0 
-615 -606 504 0 
-616 -606 617 0 
-616 -617 606 0 
-436 618 0 
-618 436 0 
-445 619 0 
-619 445 0 
-56 -57 58 0 
-56 -58 57 0 
-59 -60 61 0 
-59 -61 60 0 
-1 2 0 
-2 1 0 
-62 -63 64 0 
-62 -64 63 0 
-65 -66 67 0 
-65 -67 66 0 
-68 -69 70 0 
-68 -70 69 0 
-71 -72 73 0 
-71 -73 72 0 
-74 -75 76 0 
-74 -76 75 0 
-77 -78 80 0 
-77 78 14 0 
-78 4 0 
-78 79 0 
-79 6 0 
-80 -81 112 0 
-80 81 143 0 
-81 111 0 
-81 82 0 
-82 110 0 
-82 83 0 
-83 109 0 
-83 84 0 
-84 108 0 
-84 85 0 
-85 107 0 
-85 86 0 
-86 106 0 
-86 87 0 
-87 105 0 
-87 88 0 
-88 104 0 
-88 89 0 
-89 103 0 
-89 90 0 
-90 91 0 
-90 102 0 
91 -92 -101 0 
92 -93 -100 0 
93 -94 -99 0 
94 -95 -98 0 
95 -96 -97 0 
96 -31 0 
97 -34 0 
98 -37 0 
99 -40 0 
100 -43 0 
3 -4 0 
3 -8 0 
101 -46 0 
102 -49 0 
103 -52 0 
104 -55 0 
105 -58 0 
106 -61 0 
107 -64 0 
108 -67 0 
109 -70 0 
110 -73 0 
4 5 0 
111 -76 0 
112 -113 -142 0 
113 -114 -141 0 
114 -115 -140 0 
115 -116 -139 0 
116 -117 -138 0 
117 -118 -137 0 
118 -119 -136 0 
119 -120 -135 0 
120 -121 -134 0 
5 -6 -7 0 
5 6 7 0 
121 -122 -133 0 
122 -123 -132 0 
123 -124 -131 0 
124 -125 -130 0 
125 -126 -129 0 
126 -127 -128 0 
127 30 0 
128 33 0 
129 36 0 
130 39 0 
131 42 0 
132 45 0 
133 48 0 
134 51 0 
135 54 0 
136 57 0 
137 60 0 
138 63 0 
139 66 0 
140 69 0 
141 72 0 
142 75 0 
143 -144 -217 0 
144 -145 -213 0 
145 -146 -209 0 
146 -147 -205 0 
147 -148 -201 0 
148 -149 -197 0 
149 -150 -193 0 
8 9 0 
150 -151 -189 0 
151 -152 -185 0 
152 -153 -181 0 
153 -154 -177 0 
154 -155 -173 0 
155 -156 -169 0 
156 -157 -165 0 
157 -158 -161 0 
158 -30 -159 0 
158 30 159 0 
159 -160 0 
9 -10 -11 0 
9 10 11 0 
160 31 0 
161 -33 -162 0 
161 33 162 0 
162 -163 164 0 
162 -164 163 0 
163 -34 0 
164 -31 0 
165 -36 -166 0 
165 36 166 0 
166 -167 168 0 
166 -168 167 0 
167 -37 0 
168 -34 -164 0 
169 -39 -170 0 
169 39 170 0 
170 -171 172 0 
170 -172 171 0 
171 -40 0 
172 -37 -168 0 
173 -42 -174 0 
173 42 174 0 
174 -175 176 0 
174 -176 175 0 
175 -43 0 
176 -40 -172 0 
177 -45 -178 0 
177 45 178 0 
178 -179 180 0 
178 -180 179 0 
179 -46 0 
180 -43 -176 0 
181 -48 -182 0 
181 48 182 0 
182 -183 184 0 
182 -184 183 0 
183 -49 0 
184 -46 -180 0 
185 -51 -186 0 
185 51 186 0 
186 -187 188 0 
186 -188 187 0 
187 -52 0 
188 -49 -184 0 
189 -54 -190 0 
189 54 190 0 
12 -13 -14 0 
12 -14 -77 0 
12 13 -77 0 
190 -191 192 0 
190 -192 191 0 
191 -55 0 
192 -52 -188 0 
193 -57 -194 0 
193 57 194 0 
194 -195 196 0 
194 -196 195 0 
195 -58 0 
196 -55 -192 0 
197 -60 -198 0 
197 60 198 0 
198 -199 200 0 
198 -200 199 0 
199 -61 0 
13 -10 0 
200 -58 -196 0 
201 -63 -202 0 
201 63 202 0 
202 -203 204 0 
202 -204 203 0 
203 -64 0 
204 -61 -200 0 
205 -66 -206 0 
205 66 206 0 
206 -207 208 0 
206 -208 207 0 
207 -67 0 
208 -64 -204 0 
209 -69 -210 0 
209 69 210 0 
210 -211 212 0 
210 -212 211 0 
211 -70 0 
212 -67 -208 0 
213 -72 -214 0 
213 72 214 0 
214 -215 216 0 
214 -216 215 0 
215 -73 0 
216 -70 -212 0 
217 -75 -218 0 
217 75 218 0 
218 -219 220 0 
218 -220 219 0 
219 -76 0 
14 -15 -74 0 
220 -73 -216 0 
223 -13 -224 0 
223 -224 -287 0 
223 13 -287 0 
224 -225 -284 0 
225 -226 -281 0 
226 -227 -278 0 
15 -16 -71 0 
227 -228 -275 0 
228 -229 -272 0 
229 -230 -269 0 
230 -231 -266 0 
231 -232 -263 0 
232 -233 -260 0 
233 -234 -257 0 
234 -235 -254 0 
235 -236 -251 0 
236 -237 -248 0 
16 -17 -68 0 
237 -238 -245 0 
238 -239 -242 0 
239 -240 -241 0 
239 240 241 0 
242 -243 -244 0 
242 243 244 0 
245 -246 -247 0 
245 246 247 0 
17 -18 -65 0 
248 -249 -250 0 
248 249 250 0 
251 -252 -253 0 
251 252 253 0 
254 -255 -256 0 
254 255 256 0 
18 -19 -62 0 
257 -258 -259 0 
257 258 259 0 
260 -261 -262 0 
260 261 262 0 
263 -264 -265 0 
263 264 265 0 
266 -267 -268 0 
266 267 268 0 
19 -20 -59 0 
269 -270 -271 0 
269 270 271 0 
272 -273 -274 0 
272 273 274 0 
275 -276 -277 0 
275 276 277 0 
20 -21 -56 0 
278 -279 -280 0 
278 279 280 0 
281 -282 -283 0 
281 282 283 0 
284 -285 -286 0 
284 285 286 0 
21 -22 -53 0 
287 -288 -224 0 
287 -78 -288 0 
287 78 -224 0 
288 -289 -320 0 
288 -320 -351 0 
288 289 -351 0 
289 -290 -319 0 
290 -291 -318 0 
291 -292 -317 0 
292 -293 -316 0 
293 -294 -315 0 
294 -295 -314 0 
295 -296 -313 0 
296 -297 -312 0 
22 -23 -50 0 
297 -298 -311 0 
298 -299 -310 0 
299 -300 -309 0 
300 -301 -308 0 
301 -302 -307 0 
302 -303 -306 0 
303 -304 -305 0 
304 -241 0 
305 -244 0 
306 -247 0 
23 -24 -47 0 
307 -250 0 
308 -253 0 
309 -256 0 
310 -259 0 
311 -262 0 
312 -265 0 
313 -268 0 
314 -271 0 
315 -274 0 
316 -277 0 
24 -25 -44 0 
317 -280 0 
318 -283 0 
319 -286 0 
320 -321 -350 0 
321 -322 -349 0 
322 -323 -348 0 
323 -324 -347 0 
324 -325 -346 0 
325 -326 -345 0 
326 -327 -344 0 
25 -26 -41 0 
327 -328 -343 0 
328 -329 -342 0 
329 -330 -341 0 
330 -331 -340 0 
331 -332 -339 0 
332 -333 -338 0 
333 -334 -337 0 
334 -335 -336 0 
335 240 0 
336 243 0 
26 -27 -38 0 
337 246 0 
338 249 0 
339 252 0 
340 255 0 
341 258 0 
342 261 0 
343 264 0 
344 267 0 
345 270 0 
346 273 0 
27 -28 -35 0 
347 276 0 
348 279 0 
349 282 0 
350 285 0 
351 -352 -425 0 
352 -353 -421 0 
353 -354 -417 0 
354 -355 -413 0 
355 -356 -409 0 
356 -357 -405 0 
28 -29 -32 0 
357 -358 -401 0 
358 -359 -397 0 
359 -360 -393 0 
360 -361 -389 0 
361 -362 -385 0 
362 -363 -381 0 
363 -364 -377 0 
364 -365 -373 0 
365 -366 -369 0 
366 -240 -367 0 
366 240 367 0 
29 -30 -31 0 
29 30 31 0 
367 -368 0 
368 241 0 
369 -243 -370 0 
369 243 370 0 
370 -371 372 0 
370 -372 371 0 
371 -244 0 
372 -241 0 
373 -246 -374 0 
373 246 374 0 
374 -375 376 0 
374 -376 375 0 
375 -247 0 
376 -244 -372 0 
377 -249 -378 0 
377 249 378 0 
378 -379 380 0 
378 -380 379 0 
379 -250 0 
380 -247 -376 0 
381 -252 -382 0 
381 252 382 0 
382 -383 384 0 
382 -384 383 0 
383 -253 0 
384 -250 -380 0 
385 -255 -386 0 
385 255 386 0 
386 -387 388 0 
386 -388 387 0 
387 -256 0 
388 -253 -384 0 
389 -258 -390 0 
389 258 390 0 
390 -391 392 0 
390 -392 391 0 
391 -259 0 
392 -256 -388 0 
393 -261 -394 0 
393 261 394 0 
394 -395 396 0 
394 -396 395 0 
395 -262 0 
396 -259 -392 0 
32 -33 -34 0 
32 33 34 0 
397 -264 -398 0 
397 264 398 0 
398 -399 400 0 
398 -400 399 0 
399 -265 0 
400 -262 -396 0 
401 -267 -402 0 
401 267 402 0 
402 -403 404 0 
402 -404 403 0 
403 -268 0 
404 -265 -400 0 
405 -270 -406 0 
405 270 406 0 
406 -407 408 0 
406 -408 407 0 
407 -271 0 
408 -268 -404 0 
409 -273 -410 0 
409 273 410 0 
410 -411 412 0 
410 -412 411 0 
411 -274 0 
412 -271 -408 0 
413 -276 -414 0 
413 276 414 0 
414 -415 416 0 
414 -416 415 0 
415 -277 0 
416 -274 -412 0 
417 -279 -418 0 
417 279 418 0 
418 -419 420 0 
418 -420 419 0 
419 -280 0 
420 -277 -416 0 
421 -282 -422 0 
421 282 422 0 
422 -423 424 0 
422 -424 423 0 
423 -283 0 
424 -280 -420 0 
425 -285 -426 0 
425 285 426 0 
426 -427 428 0 
426 -428 427 0 
35 -36 -37 0 
35 36 37 0 
427 -286 0 
428 -283 -424 0 
429 -13 -430 0 
429 -430 -431 0 
429 13 -431 0 
430 -2 0 
431 -432 -437 0 
431 -78 -432 0 
431 78 -437 0 
432 -433 -437 0 
432 -81 -433 0 
432 81 -437 0 
433 -2 -434 0 
433 2 434 0 
434 -435 0 
435 436 0 
437 -2 -436 0 
437 2 436 0 
438 -13 -439 0 
438 -439 -440 0 
438 13 -440 0 
439 222 0 
440 -441 -446 0 
440 -78 -441 0 
440 78 -446 0 
441 -289 -442 0 
441 -442 -446 0 
441 289 -446 0 
442 -222 -443 0 
442 222 443 0 
443 -444 0 
444 445 0 
446 -222 -445 0 
446 222 445 0 
447 -448 -449 0 
447 -449 -460 0 
447 448 -460 0 
448 10 0 
449 -450 -458 0 
450 -451 -456 0 
451 -452 -454 0 
38 -39 -40 0 
38 39 40 0 
452 453 0 
454 455 0 
456 457 0 
458 459 0 
460 -461 -478 0 
460 -78 -461 0 
460 78 -478 0 
461 -462 -473 0 
461 -473 -485 0 
461 462 -485 0 
462 -463 -471 0 
463 -464 -469 0 
464 -465 -467 0 
465 466 0 
467 468 0 
469 470 0 
471 472 0 
473 -13 -474 0 
473 -474 -478 0 
473 13 -478 0 
474 -475 -458 0 
475 -476 -456 0 
476 -477 -454 0 
477 -453 0 
478 -479 -484 0 
479 -480 -483 0 
480 -481 -482 0 
481 -453 -466 0 
481 453 466 0 
41 -42 -43 0 
41 42 43 0 
482 -455 -468 0 
482 455 468 0 
483 -457 -470 0 
483 457 470 0 
484 -459 -472 0 
484 459 472 0 
485 -486 -490 0 
485 -490 -497 0 
485 486 -497 0 
486 -487 -471 0 
487 -488 -469 0 
488 -489 -467 0 
489 -466 0 
490 -491 -493 0 
490 -493 -474 0 
490 491 -474 0 
491 -492 0 
493 -494 -458 0 
494 -495 -456 0 
495 -452 -496 0 
496 -455 0 
497 -498 -502 0 
497 -502 -508 0 
497 498 -508 0 
498 -499 -471 0 
499 -500 -469 0 
500 -465 -501 0 
501 -468 0 
502 -503 -505 0 
502 -505 -478 0 
502 503 -478 0 
503 504 0 
505 -506 -458 0 
506 -507 -456 0 
507 -477 -496 0 
508 -509 -512 0 
508 -512 -517 0 
508 509 -517 0 
509 -510 -471 0 
510 -511 -469 0 
511 -489 -501 0 
44 -45 -46 0 
44 45 46 0 
512 -513 -514 0 
512 -514 -505 0 
512 513 -505 0 
513 -504 0 
514 -515 -458 0 
515 -451 -516 0 
516 -457 0 
517 -518 -521 0 
517 -521 -525 0 
517 518 -525 0 
518 -519 -471 0 
519 -464 -520 0 
520 -470 0 
521 -522 -523 0 
521 -523 -478 0 
521 522 -478 0 
522 436 0 
523 -524 -458 0 
524 -476 -516 0 
525 -526 -528 0 
525 -528 -532 0 
525 526 -532 0 
526 -527 -471 0 
527 -488 -520 0 
528 -529 -530 0 
528 -530 -478 0 
528 529 -478 0 
529 -436 0 
530 -531 -458 0 
531 -495 -516 0 
532 -533 -535 0 
532 -535 -540 0 
532 533 -540 0 
533 -534 -471 0 
534 -500 -520 0 
535 -536 -538 0 
535 -538 -478 0 
535 536 -478 0 
536 -537 0 
538 -539 -458 0 
539 -507 -516 0 
540 -541 -543 0 
540 -543 -547 0 
540 541 -547 0 
541 -542 -471 0 
47 -48 -49 0 
47 48 49 0 
542 -511 -520 0 
543 -544 -545 0 
543 -545 -478 0 
543 544 -478 0 
544 445 0 
545 -450 -546 0 
546 -459 0 
547 -548 -550 0 
547 -550 -553 0 
547 548 -553 0 
548 -463 -549 0 
549 -472 0 
550 -551 -552 0 
550 -552 -478 0 
550 551 -478 0 
551 -445 0 
552 -475 -546 0 
553 -554 -555 0 
553 -555 -478 0 
553 554 -478 0 
554 -487 -549 0 
555 -493 -478 0 
555 -556 -493 0 
555 556 -478 0 
556 -557 0 
558 -448 -559 0 
558 -559 -561 0 
558 448 -561 0 
559 -560 0 
561 -562 -563 0 
561 -78 -562 0 
561 78 -563 0 
562 -462 -563 0 
562 -563 -565 0 
562 462 -565 0 
563 -560 -564 0 
563 560 564 0 
565 -486 -566 0 
565 -566 -568 0 
565 486 -568 0 
566 -491 -563 0 
566 -563 -567 0 
566 491 -567 0 
567 560 0 
568 -498 -563 0 
568 -563 -569 0 
568 498 -569 0 
569 -509 -563 0 
569 -563 -570 0 
569 509 -570 0 
50 -51 -52 0 
50 51 52 0 
570 -518 -563 0 
570 -563 -571 0 
570 518 -571 0 
571 -526 -572 0 
571 -572 -573 0 
571 526 -573 0 
572 -529 -559 0 
572 -559 -563 0 
572 529 -563 0 
573 -533 -563 0 
573 -563 -574 0 
573 533 -574 0 
574 -541 -563 0 
574 -563 -575 0 
574 541 -575 0 
575 -548 -576 0 
575 -576 -577 0 
575 548 -577 0 
576 -551 -567 0 
576 -567 -563 0 
576 551 -563 0 
577 -554 -578 0 
577 -578 -563 0 
577 554 -563 0 
578 -556 -567 0 
578 -567 -563 0 
578 556 -563 0 
579 -448 -580 0 
579 -580 -582 0 
579 448 -582 0 
580 -581 0 
582 -583 -584 0 
582 -78 -583 0 
582 78 -584 0 
583 -462 -584 0 
583 -584 -586 0 
583 462 -586 0 
584 -581 -585 0 
584 581 585 0 
586 -486 -587 0 
586 -587 -589 0 
586 486 -589 0 
587 -491 -584 0 
587 -584 -588 0 
587 491 -588 0 
588 581 0 
589 -498 -584 0 
589 -584 -590 0 
589 498 -590 0 
590 -509 -584 0 
590 -584 -591 0 
590 509 -591 0 
591 -518 -584 0 
591 -584 -592 0 
591 518 -592 0 
592 -526 -593 0 
592 -593 -594 0 
592 526 -594 0 
593 -529 -588 0 
593 -588 -584 0 
593 529 -584 0 
594 -533 -584 0 
594 -584 -595 0 
594 533 -595 0 
595 -541 -584 0 
595 -584 -596 0 
595 541 -596 0 
596 -548 -597 0 
596 -597 -598 0 
596 548 -598 0 
597 -551 -580 0 
597 -580 -584 0 
597 551 -584 0 
598 -554 -599 0 
598 -599 -584 0 
598 554 -584 0 
53 -54 -55 0 
53 54 55 0 
599 -556 -588 0 
599 -588 -584 0 
599 556 -584 0 
600 -601 -616 0 
600 -78 -601 0 
600 78 -616 0 
601 -602 -605 0 
601 -605 -607 0 
601 602 -607 0 
602 -603 -604 0 
603 -564 0 
604 585 0 
605 -606 -436 0 
605 606 436 0 
607 -608 -611 0 
607 -611 -612 0 
607 608 -612 0 
608 -609 -610 0 
609 564 0 
610 -585 0 
611 -606 -445 0 
611 606 445 0 
612 -613 -614 0 
612 -614 -615 0 
612 613 -615 0 
613 -603 -610 0 
614 606 0 
615 -606 -504 0 
615 606 504 0 
616 -606 -617 0 
616 606 617 0 
56 -57 -58 0 
56 57 58 0 
59 -60 -61 0 
59 60 61 0 
62 -63 -64 0 
62 63 64 0 
65 -66 -67 0 
65 66 67 0 
68 -69 -70 0 
68 69 70 0 
71 -72 -73 0 
71 72 73 0 
74 -75 -76 0 
74 75 76 0 
77 -78 -80 0 
77 -80 -14 0 
77 78 -14 0 
78 -4 -79 0 
79 -6 0 
80 -112 -143 0 
80 -81 -112 0 
80 81 -143 0 
81 -82 -111 0 
82 -83 -110 0 
83 -84 -109 0 
84 -85 -108 0 
85 -86 -107 0 
86 -87 -106 0 
87 -88 -105 0 
88 -89 -104 0 
89 -90 -103 0 
90 -91 -102 0 
